c description: Random 2-CNF over 15 variables and 65 clauses
c generator: CNFgen (0.9.0)
c copyright: (C) 2012-2020 Massimo Lauria <massimo.lauria@uniroma1.it>
c url: https://massimolauria.net/cnfgen
c
p cnf 15 65
9 -10 0
1 9 0
2 -14 0
13 14 0
-1 -7 0
1 -15 0
-7 -12 0
1 5 0
1 14 0
13 -14 0
-4 11 0
1 -6 0
-1 -5 0
3 -11 0
-2 -3 0
-5 -8 0
7 13 0
5 -15 0
-8 15 0
7 -11 0
4 13 0
3 -5 0
3 5 0
-12 14 0
2 11 0
6 -11 0
13 15 0
-6 13 0
-5 6 0
4 12 0
4 -6 0
-7 15 0
3 13 0
6 9 0
11 13 0
5 7 0
-4 -12 0
14 15 0
4 8 0
-7 11 0
9 13 0
1 -7 0
9 14 0
-2 15 0
-1 13 0
-2 6 0
-3 9 0
7 -10 0
6 15 0
1 15 0
6 -12 0
8 -12 0
-7 -13 0
-11 -12 0
2 10 0
-6 14 0
4 -12 0
-11 13 0
3 12 0
-14 15 0
-5 -6 0
1 -3 0
-3 -12 0
-1 -8 0
-4 15 0